language ESSENCE' 1.0
$ minion Nodes: 1
$ minion TotalTime: 0.000571
$ Savile Row TotalTime: 0.191
letting s_SetExplicitVarSize_tuple2 be [1, 2, 3;int(1..3)]
letting s_SetExplicitVarSize_tuple1 be [true, true, true;int(1..3)]
